p cnf 14 12
-9 8 -13 7 0
-6 -7 14 -3 0
-11 8 6 -2 12 7 10 3 4 9 14 1 -5 13 0
7 8 -11 0
-9 -10 5 -6 13 7 3 -14 4 11 0
1 3 2 11 7 4 -13 9 -10 0
-13 -12 4 10 0
13 -12 3 0
-3 -4 0
8 -13 4 -6 11 -1 7 -9 -5 0
-2 -8 11 5 14 -4 1 -12 13 0
13 6 12 0
